unsat
(:added-eqs                       26353
 :arith-eq-adapter                300
 :arith-bound-propagations-lp     100
 :arith-conflicts                 726
 :arith-diseq                     636
 :arith-fixed-eqs                 682
 :arith-gcd-calls                 51
 :arith-grobner-calls             96
 :arith-grobner-conflicts         14
 :arith-horner-calls              34
 :arith-horner-cross-nested-forms 2069
 :arith-lower                     10359
 :arith-make-feasible             6032
 :arith-max-columns               874
 :arith-max-rows                  259
 :arith-nla-add-bounds            33
 :arith-nla-lemmas                430
 :arith-nla-propagate-bounds      186
 :arith-nla-propagate-eq          6712
 :arith-nra-calls                 29
 :arith-offset-eqs                100
 :arith-patches                   51
 :arith-patches-success           50
 :arith-upper                     25906
 :binary-propagations             67125
 :conflicts                       464
 :decisions                       55550
 :del-clause                      486
 :elim-unconstrained              25
 :final-checks                    275
 :max-memory                      135.89
 :memory                          50.80
 :minimized-lits                  251
 :mk-bool-var                     2498
 :mk-clause                       1034
 :mk-clause-binary                18496
 :nlsat-conflicts                 2673
 :nlsat-decisions                 42
 :nlsat-propagations              170428
 :nlsat-stages                    96348
 :num-allocs                      2107185077
 :num-checks                      1
 :propagations                    76970
 :restarts                        4
 :rlimit-count                    4041997
 :sat-backjumps                   220
 :sat-conflicts                   220
 :sat-decisions                   4216
 :sat-del-clause                  688
 :sat-elim-clauses                404
 :sat-elim-literals               234
 :sat-minimized-lits              34
 :sat-mk-clause-2ary              113296
 :sat-mk-clause-nary              180684
 :sat-mk-var                      82688
 :sat-propagations-2ary           317092
 :sat-propagations-nary           237049
 :sat-scc-elim-binary             1494
 :sat-scc-elim-vars               605
 :sat-subs-resolution-dyn         10
 :sat-units                       160
 :time                            1.97
 :total-time                      1.98)
